\ Model qkp01
\ LP format - for model browsing. Use MPS format to capture full model detail.
Maximize
  14 x_2 + 48 x_6 + 20 x_19 + 47 x_20 + 21 x_21 + 16 x_26 + 46 x_29
   + 46 x_31 + 25 x_32 + 23 x_34 + 14 x_35 + 3 x_36 + 9 x_44 + 38 x_51
   + 46 x_52 + 24 x_54 + 10 x_55 + 23 x_57 + 17 x_58 + 36 x_59 + 46 x_60
   + 44 x_68 + 29 x_71 + 28 x_79 + 9 x_80 + 41 x_83 + 38 x_87 + 17 x_88
   + 2 x_94 + 25 x_99 + [ 12 x_1 * x_5 + 4 x_1 * x_7 + 28 x_1 * x_8
   + 8 x_1 * x_11 + 86 x_1 * x_21 + 8 x_1 * x_23 + 16 x_1 * x_25
   + 60 x_1 * x_34 + 20 x_1 * x_45 + 72 x_1 * x_46 + 92 x_1 * x_56
   + 48 x_1 * x_62 + 34 x_1 * x_63 + 22 x_1 * x_73 + 58 x_1 * x_87
   + 16 x_1 * x_89 + 54 x_1 * x_95 + 46 x_2 * x_6 + 78 x_2 * x_7
   + 2 x_2 * x_9 + 40 x_2 * x_13 + 26 x_2 * x_14 + 72 x_2 * x_18
   + 100 x_2 * x_19 + 12 x_2 * x_23 + 48 x_2 * x_30 + 66 x_2 * x_48
   + 8 x_2 * x_51 + 66 x_2 * x_53 + 88 x_2 * x_58 + 10 x_2 * x_60
   + 2 x_2 * x_63 + 16 x_2 * x_84 + 74 x_2 * x_89 + 8 x_2 * x_91
   + 46 x_2 * x_99 + 66 x_2 * x_100 + 90 x_3 * x_4 + 8 x_3 * x_6
   + 78 x_3 * x_17 + 16 x_3 * x_21 + 6 x_3 * x_24 + 50 x_3 * x_28
   + 64 x_3 * x_41 + 82 x_3 * x_52 + 90 x_3 * x_53 + 64 x_3 * x_59
   + 50 x_3 * x_71 + 18 x_3 * x_74 + 30 x_3 * x_78 + 24 x_3 * x_86
   + 76 x_3 * x_89 + 76 x_3 * x_92 + 14 x_3 * x_94 + 54 x_3 * x_96
   + 30 x_4 * x_11 + 42 x_4 * x_12 + 64 x_4 * x_15 + 18 x_4 * x_24
   + 20 x_4 * x_28 + 58 x_4 * x_30 + 28 x_4 * x_34 + 32 x_4 * x_36
   + 2 x_4 * x_41 + 16 x_4 * x_45 + 64 x_4 * x_47 + 68 x_4 * x_49
   + 44 x_4 * x_56 + 70 x_4 * x_58 + 42 x_4 * x_60 + 36 x_4 * x_66
   + 6 x_4 * x_71 + 84 x_4 * x_72 + 88 x_4 * x_77 + 28 x_4 * x_83
   + 76 x_4 * x_86 + 96 x_4 * x_87 + 30 x_4 * x_91 + 82 x_5 * x_7
   + 36 x_5 * x_8 + 46 x_5 * x_9 + 16 x_5 * x_22 + 38 x_5 * x_31
   + 58 x_5 * x_32 + 10 x_5 * x_34 + 76 x_5 * x_38 + 78 x_5 * x_41
   + 80 x_5 * x_46 + 46 x_5 * x_47 + 8 x_5 * x_49 + 38 x_5 * x_50
   + 78 x_5 * x_51 + 50 x_5 * x_55 + 60 x_5 * x_56 + 98 x_5 * x_58
   + 60 x_5 * x_60 + 22 x_5 * x_61 + 8 x_5 * x_66 + 56 x_5 * x_68
   + 36 x_5 * x_77 + 12 x_5 * x_84 + 60 x_5 * x_85 + 70 x_5 * x_93
   + 32 x_5 * x_100 + 76 x_6 * x_8 + 24 x_6 * x_12 + 16 x_6 * x_14
   + 54 x_6 * x_15 + 76 x_6 * x_17 + 40 x_6 * x_19 + 90 x_6 * x_32
   + 88 x_6 * x_40 + 84 x_6 * x_41 + 60 x_6 * x_43 + 98 x_6 * x_45
   + 46 x_6 * x_46 + 24 x_6 * x_49 + 88 x_6 * x_50 + 96 x_6 * x_51
   + 62 x_6 * x_52 + 76 x_6 * x_54 + 92 x_6 * x_60 + 78 x_6 * x_63
   + 6 x_6 * x_64 + 58 x_6 * x_68 + 42 x_6 * x_71 + 68 x_6 * x_72
   + 28 x_6 * x_74 + 16 x_6 * x_81 + 8 x_6 * x_86 + 66 x_6 * x_89
   + 76 x_6 * x_93 + 38 x_6 * x_99 + 56 x_7 * x_11 + 80 x_7 * x_17
   + 100 x_7 * x_18 + 64 x_7 * x_22 + 8 x_7 * x_31 + 82 x_7 * x_37
   + 48 x_7 * x_39 + 60 x_7 * x_42 + 82 x_7 * x_43 + 46 x_7 * x_53
   + 20 x_7 * x_55 + 98 x_7 * x_57 + 22 x_7 * x_62 + 72 x_7 * x_63
   + 58 x_7 * x_66 + 4 x_7 * x_70 + 82 x_7 * x_71 + 94 x_7 * x_74
   + 40 x_7 * x_81 + 34 x_7 * x_87 + 24 x_7 * x_88 + 54 x_7 * x_95
   + 100 x_8 * x_10 + 92 x_8 * x_13 + 40 x_8 * x_15 + 82 x_8 * x_17
   + 6 x_8 * x_20 + 42 x_8 * x_22 + 66 x_8 * x_27 + 76 x_8 * x_32
   + 48 x_8 * x_41 + 92 x_8 * x_42 + 96 x_8 * x_44 + 60 x_8 * x_54
   + 72 x_8 * x_59 + 96 x_8 * x_63 + 8 x_8 * x_65 + 8 x_8 * x_75
   + 92 x_8 * x_80 + 28 x_8 * x_83 + 52 x_8 * x_85 + 34 x_8 * x_90
   + 100 x_9 * x_12 + 80 x_9 * x_13 + 38 x_9 * x_22 + 92 x_9 * x_31
   + 6 x_9 * x_33 + 30 x_9 * x_35 + 68 x_9 * x_41 + 12 x_9 * x_46
   + 30 x_9 * x_55 + 68 x_9 * x_61 + 70 x_9 * x_67 + 50 x_9 * x_73
   + 72 x_9 * x_74 + 82 x_9 * x_80 + 74 x_9 * x_84 + 64 x_9 * x_85
   + 12 x_9 * x_87 + 14 x_9 * x_88 + 66 x_9 * x_92 + 58 x_9 * x_95
   + 74 x_9 * x_99 + 70 x_10 * x_14 + 24 x_10 * x_16 + 4 x_10 * x_18
   + 84 x_10 * x_24 + 98 x_10 * x_26 + 72 x_10 * x_30 + 82 x_10 * x_31
   + 72 x_10 * x_32 + 60 x_10 * x_40 + 16 x_10 * x_42 + 18 x_10 * x_46
   + 30 x_10 * x_47 + 64 x_10 * x_50 + 46 x_10 * x_53 + 100 x_10 * x_54
   + 62 x_10 * x_55 + 40 x_10 * x_61 + 84 x_10 * x_64 + 28 x_10 * x_70
   + 20 x_10 * x_71 + 58 x_10 * x_73 + 42 x_10 * x_75 + 40 x_10 * x_82
   + 68 x_10 * x_86 + 94 x_10 * x_87 + 36 x_10 * x_90 + 46 x_10 * x_97
   + 10 x_11 * x_13 + 66 x_11 * x_15 + 18 x_11 * x_19 + 82 x_11 * x_22
   + 54 x_11 * x_28 + 2 x_11 * x_30 + 30 x_11 * x_42 + 44 x_11 * x_47
   + 22 x_11 * x_59 + 52 x_11 * x_60 + 74 x_11 * x_75 + 92 x_11 * x_79
   + 74 x_11 * x_83 + 80 x_11 * x_86 + 72 x_11 * x_91 + 82 x_11 * x_98
   + 24 x_12 * x_15 + 100 x_12 * x_16 + 66 x_12 * x_18 + 12 x_12 * x_20
   + 58 x_12 * x_44 + 70 x_12 * x_46 + 20 x_12 * x_48 + 56 x_12 * x_49
   + 66 x_12 * x_51 + 60 x_12 * x_56 + 78 x_12 * x_59 + 82 x_12 * x_63
   + 36 x_12 * x_67 + 44 x_12 * x_77 + 58 x_12 * x_78 + 18 x_12 * x_82
   + 22 x_12 * x_84 + 90 x_12 * x_86 + 20 x_12 * x_92 + 42 x_12 * x_93
   + 82 x_13 * x_14 + 68 x_13 * x_16 + 78 x_13 * x_25 + 2 x_13 * x_27
   + 46 x_13 * x_34 + 6 x_13 * x_42 + 88 x_13 * x_43 + 48 x_13 * x_44
   + 50 x_13 * x_51 + 74 x_13 * x_55 + 18 x_13 * x_57 + 56 x_13 * x_72
   + 44 x_13 * x_73 + 32 x_13 * x_80 + 2 x_13 * x_84 + 62 x_13 * x_87
   + 42 x_13 * x_99 + 48 x_14 * x_21 + 38 x_14 * x_26 + 98 x_14 * x_27
   + 12 x_14 * x_28 + 30 x_14 * x_29 + 74 x_14 * x_31 + 2 x_14 * x_36
   + 44 x_14 * x_42 + 4 x_14 * x_43 + 76 x_14 * x_46 + 48 x_14 * x_50
   + 78 x_14 * x_54 + 68 x_14 * x_56 + 36 x_14 * x_68 + 90 x_14 * x_75
   + 70 x_14 * x_78 + 30 x_14 * x_98 + 40 x_15 * x_18 + 42 x_15 * x_21
   + 18 x_15 * x_24 + 56 x_15 * x_30 + 30 x_15 * x_33 + 28 x_15 * x_34
   + 34 x_15 * x_36 + 34 x_15 * x_38 + 18 x_15 * x_41 + 2 x_15 * x_42
   + 84 x_15 * x_45 + 84 x_15 * x_46 + 14 x_15 * x_52 + 12 x_15 * x_57
   + 8 x_15 * x_65 + 4 x_15 * x_76 + 86 x_15 * x_81 + 50 x_15 * x_82
   + 76 x_15 * x_84 + 86 x_15 * x_88 + 62 x_16 * x_18 + 38 x_16 * x_21
   + 68 x_16 * x_27 + 20 x_16 * x_30 + 40 x_16 * x_33 + 82 x_16 * x_35
   + 40 x_16 * x_36 + 92 x_16 * x_39 + 84 x_16 * x_41 + 78 x_16 * x_43
   + 12 x_16 * x_44 + 60 x_16 * x_47 + 38 x_16 * x_50 + 86 x_16 * x_57
   + 40 x_16 * x_66 + 60 x_16 * x_67 + 46 x_16 * x_71 + 76 x_16 * x_73
   + 12 x_16 * x_76 + 44 x_16 * x_78 + 50 x_16 * x_80 + 56 x_16 * x_82
   + 82 x_16 * x_84 + 42 x_16 * x_86 + 36 x_16 * x_98 + 68 x_17 * x_19
   + 30 x_17 * x_20 + 76 x_17 * x_27 + 12 x_17 * x_29 + 84 x_17 * x_31
   + 36 x_17 * x_32 + 82 x_17 * x_35 + 8 x_17 * x_37 + 74 x_17 * x_45
   + 4 x_17 * x_50 + 88 x_17 * x_54 + 74 x_17 * x_57 + 68 x_17 * x_63
   + 44 x_17 * x_69 + 66 x_17 * x_70 + 46 x_17 * x_73 + 50 x_17 * x_78
   + 16 x_17 * x_81 + 76 x_17 * x_84 + 56 x_17 * x_87 + 56 x_17 * x_89
   + 74 x_17 * x_91 + 34 x_17 * x_94 + 74 x_17 * x_100 + 42 x_18 * x_22
   + 12 x_18 * x_24 + 76 x_18 * x_29 + 8 x_18 * x_37 + 84 x_18 * x_38
   + 10 x_18 * x_39 + 48 x_18 * x_42 + 52 x_18 * x_43 + 86 x_18 * x_47
   + 68 x_18 * x_49 + 28 x_18 * x_53 + 86 x_18 * x_58 + 18 x_18 * x_62
   + 86 x_18 * x_66 + 46 x_18 * x_74 + 8 x_18 * x_81 + 78 x_18 * x_82
   + 66 x_18 * x_88 + 18 x_18 * x_90 + 6 x_18 * x_91 + 100 x_18 * x_97
   + 92 x_19 * x_20 + 32 x_19 * x_21 + 68 x_19 * x_22 + 80 x_19 * x_23
   + 58 x_19 * x_32 + 46 x_19 * x_33 + 36 x_19 * x_34 + 52 x_19 * x_35
   + 62 x_19 * x_42 + 78 x_19 * x_45 + 64 x_19 * x_49 + 74 x_19 * x_56
   + 80 x_19 * x_59 + 8 x_19 * x_61 + 36 x_19 * x_63 + 24 x_19 * x_65
   + 24 x_19 * x_73 + 76 x_19 * x_75 + 70 x_19 * x_78 + 86 x_19 * x_85
   + 34 x_19 * x_89 + 20 x_19 * x_90 + 86 x_19 * x_91 + 96 x_19 * x_94
   + 18 x_20 * x_25 + 66 x_20 * x_29 + 54 x_20 * x_30 + 48 x_20 * x_32
   + 60 x_20 * x_33 + 68 x_20 * x_40 + 96 x_20 * x_42 + 50 x_20 * x_43
   + 24 x_20 * x_45 + 86 x_20 * x_53 + 10 x_20 * x_57 + 22 x_20 * x_62
   + 50 x_20 * x_67 + 96 x_20 * x_69 + 18 x_20 * x_73 + 72 x_20 * x_76
   + 44 x_20 * x_80 + 22 x_20 * x_84 + 42 x_20 * x_86 + 46 x_20 * x_89
   + 10 x_20 * x_90 + 2 x_20 * x_91 + 8 x_20 * x_98 + 32 x_21 * x_22
   + 12 x_21 * x_30 + 6 x_21 * x_32 + 44 x_21 * x_35 + 88 x_21 * x_41
   + 8 x_21 * x_42 + 100 x_21 * x_47 + 38 x_21 * x_51 + 22 x_21 * x_54
   + 22 x_21 * x_57 + 22 x_21 * x_59 + 12 x_21 * x_62 + 14 x_21 * x_63
   + 62 x_21 * x_65 + 20 x_21 * x_67 + 98 x_21 * x_75 + 28 x_21 * x_76
   + 62 x_21 * x_77 + 80 x_21 * x_78 + 80 x_21 * x_81 + 54 x_21 * x_83
   + 76 x_21 * x_85 + 44 x_21 * x_86 + 2 x_21 * x_89 + 12 x_22 * x_28
   + 94 x_22 * x_34 + 34 x_22 * x_36 + 66 x_22 * x_38 + 60 x_22 * x_41
   + 90 x_22 * x_43 + 88 x_22 * x_49 + 62 x_22 * x_51 + 18 x_22 * x_53
   + 86 x_22 * x_59 + 88 x_22 * x_60 + 72 x_22 * x_62 + 64 x_22 * x_63
   + 8 x_22 * x_64 + 14 x_22 * x_65 + 48 x_22 * x_69 + 38 x_22 * x_75
   + 98 x_22 * x_76 + 96 x_22 * x_82 + 78 x_22 * x_84 + 76 x_22 * x_85
   + 48 x_22 * x_96 + 4 x_22 * x_98 + 78 x_22 * x_100 + 64 x_23 * x_24
   + 34 x_23 * x_26 + 82 x_23 * x_27 + 2 x_23 * x_30 + 68 x_23 * x_31
   + 62 x_23 * x_35 + 84 x_23 * x_36 + 82 x_23 * x_38 + 78 x_23 * x_39
   + 12 x_23 * x_41 + 68 x_23 * x_43 + 40 x_23 * x_54 + 68 x_23 * x_59
   + 80 x_23 * x_61 + 84 x_23 * x_62 + 34 x_23 * x_66 + 20 x_23 * x_67
   + 56 x_23 * x_68 + 22 x_23 * x_74 + 54 x_23 * x_75 + 28 x_23 * x_79
   + 2 x_23 * x_81 + 12 x_23 * x_82 + 62 x_23 * x_84 + 4 x_23 * x_88
   + 24 x_23 * x_90 + 98 x_23 * x_97 + 8 x_24 * x_25 + 90 x_24 * x_31
   + 100 x_24 * x_37 + 6 x_24 * x_38 + 34 x_24 * x_43 + 98 x_24 * x_47
   + 68 x_24 * x_48 + 82 x_24 * x_59 + 12 x_24 * x_60 + 14 x_24 * x_63
   + 8 x_24 * x_67 + 44 x_24 * x_68 + 74 x_24 * x_81 + 36 x_24 * x_84
   + 28 x_24 * x_87 + 80 x_24 * x_98 + 16 x_24 * x_99 + 86 x_25 * x_29
   + 56 x_25 * x_31 + 36 x_25 * x_38 + 74 x_25 * x_46 + 86 x_25 * x_51
   + 46 x_25 * x_57 + 12 x_25 * x_64 + 34 x_25 * x_68 + 6 x_25 * x_70
   + 14 x_25 * x_74 + 60 x_25 * x_78 + 92 x_25 * x_79 + 34 x_25 * x_86
   + 72 x_25 * x_94 + 60 x_25 * x_95 + 82 x_26 * x_33 + 68 x_26 * x_34
   + 30 x_26 * x_40 + 60 x_26 * x_53 + 38 x_26 * x_55 + 78 x_26 * x_59
   + 66 x_26 * x_66 + 60 x_26 * x_67 + 4 x_26 * x_69 + 60 x_26 * x_70
   + 72 x_26 * x_74 + 8 x_26 * x_76 + 50 x_26 * x_77 + 24 x_26 * x_83
   + 4 x_26 * x_86 + 8 x_26 * x_90 + 8 x_26 * x_91 + 36 x_26 * x_92
   + 86 x_26 * x_93 + 22 x_26 * x_96 + 36 x_27 * x_29 + 30 x_27 * x_30
   + 68 x_27 * x_35 + 72 x_27 * x_38 + 98 x_27 * x_48 + 24 x_27 * x_51
   + 10 x_27 * x_54 + 80 x_27 * x_58 + 92 x_27 * x_64 + 44 x_27 * x_65
   + 38 x_27 * x_67 + 88 x_27 * x_70 + 32 x_27 * x_71 + 58 x_27 * x_79
   + 52 x_27 * x_84 + 38 x_27 * x_87 + 22 x_27 * x_89 + 60 x_27 * x_91
   + 6 x_27 * x_95 + 86 x_27 * x_100 + 100 x_28 * x_29 + 44 x_28 * x_36
   + 70 x_28 * x_45 + 86 x_28 * x_46 + 22 x_28 * x_61 + 4 x_28 * x_66
   + 66 x_28 * x_68 + 34 x_28 * x_70 + 90 x_28 * x_71 + 24 x_28 * x_73
   + 28 x_28 * x_75 + 86 x_28 * x_77 + 58 x_28 * x_88 + 10 x_28 * x_91
   + 76 x_28 * x_96 + 36 x_28 * x_98 + 90 x_28 * x_100 + 70 x_29 * x_35
   + 56 x_29 * x_38 + 30 x_29 * x_42 + 38 x_29 * x_47 + 86 x_29 * x_49
   + 86 x_29 * x_51 + 62 x_29 * x_52 + 76 x_29 * x_58 + 38 x_29 * x_62
   + 82 x_29 * x_64 + 84 x_29 * x_67 + 20 x_29 * x_70 + 44 x_29 * x_72
   + 86 x_29 * x_76 + 86 x_29 * x_79 + 18 x_29 * x_83 + 92 x_29 * x_87
   + 44 x_29 * x_90 + 96 x_29 * x_94 + 62 x_29 * x_99 + 54 x_29 * x_100
   + 66 x_30 * x_31 + 28 x_30 * x_33 + 12 x_30 * x_34 + 76 x_30 * x_39
   + 44 x_30 * x_40 + 84 x_30 * x_42 + 88 x_30 * x_44 + 14 x_30 * x_48
   + 82 x_30 * x_57 + 36 x_30 * x_59 + 62 x_30 * x_66 + 12 x_30 * x_67
   + 40 x_30 * x_68 + 40 x_30 * x_75 + 40 x_30 * x_78 + 94 x_30 * x_80
   + 60 x_30 * x_87 + 98 x_30 * x_88 + 26 x_30 * x_96 + 92 x_30 * x_99
   + 62 x_30 * x_100 + 36 x_31 * x_35 + 94 x_31 * x_40 + 14 x_31 * x_42
   + 68 x_31 * x_45 + 6 x_31 * x_48 + 70 x_31 * x_49 + 86 x_31 * x_50
   + 66 x_31 * x_54 + 18 x_31 * x_61 + 54 x_31 * x_62 + 74 x_31 * x_65
   + 94 x_31 * x_66 + 58 x_31 * x_72 + 58 x_31 * x_73 + 36 x_31 * x_81
   + 4 x_31 * x_88 + 52 x_31 * x_96 + 88 x_32 * x_33 + 98 x_32 * x_39
   + 18 x_32 * x_41 + 28 x_32 * x_44 + 58 x_32 * x_47 + 72 x_32 * x_48
   + 50 x_32 * x_50 + 36 x_32 * x_55 + 2 x_32 * x_59 + 34 x_32 * x_61
   + 2 x_32 * x_69 + 64 x_32 * x_72 + 22 x_32 * x_74 + 28 x_32 * x_75
   + 64 x_32 * x_78 + 68 x_32 * x_84 + 88 x_32 * x_89 + 80 x_32 * x_100
   + 78 x_33 * x_35 + 96 x_33 * x_38 + 60 x_33 * x_45 + 96 x_33 * x_46
   + 8 x_33 * x_50 + 52 x_33 * x_54 + 20 x_33 * x_56 + 36 x_33 * x_57
   + 76 x_33 * x_58 + 6 x_33 * x_64 + 30 x_33 * x_67 + 78 x_33 * x_83
   + 38 x_33 * x_86 + 12 x_33 * x_100 + 34 x_34 * x_37 + 30 x_34 * x_38
   + 34 x_34 * x_48 + 72 x_34 * x_52 + 90 x_34 * x_69 + 40 x_34 * x_70
   + 36 x_34 * x_73 + 84 x_34 * x_74 + 84 x_34 * x_75 + 88 x_34 * x_78
   + 90 x_34 * x_79 + 94 x_34 * x_83 + 24 x_34 * x_86 + 28 x_34 * x_94
   + 64 x_34 * x_97 + 16 x_34 * x_100 + 74 x_35 * x_36 + 8 x_35 * x_39
   + 42 x_35 * x_43 + 10 x_35 * x_51 + 14 x_35 * x_53 + 16 x_35 * x_54
   + 8 x_35 * x_62 + 30 x_35 * x_63 + 24 x_35 * x_64 + 56 x_35 * x_65
   + 12 x_35 * x_67 + 86 x_35 * x_80 + 36 x_35 * x_83 + 52 x_35 * x_85
   + 60 x_35 * x_86 + 12 x_35 * x_88 + 12 x_35 * x_89 + 58 x_35 * x_90
   + 94 x_35 * x_92 + 62 x_35 * x_96 + 74 x_35 * x_98 + 16 x_35 * x_100
   + 46 x_36 * x_46 + 86 x_36 * x_48 + 56 x_36 * x_49 + 26 x_36 * x_53
   + 50 x_36 * x_56 + 56 x_36 * x_57 + 24 x_36 * x_60 + 100 x_36 * x_63
   + 98 x_36 * x_67 + 74 x_36 * x_71 + 60 x_36 * x_74 + 32 x_36 * x_75
   + 30 x_36 * x_76 + 96 x_36 * x_77 + 84 x_36 * x_78 + 22 x_36 * x_83
   + 56 x_36 * x_84 + 72 x_36 * x_99 + 44 x_37 * x_42 + 42 x_37 * x_44
   + 50 x_37 * x_46 + 4 x_37 * x_50 + 94 x_37 * x_52 + 32 x_37 * x_54
   + 36 x_37 * x_57 + 26 x_37 * x_62 + 84 x_37 * x_63 + 28 x_37 * x_67
   + 78 x_37 * x_68 + 22 x_37 * x_72 + 84 x_37 * x_73 + 26 x_37 * x_79
   + 100 x_37 * x_80 + 28 x_37 * x_83 + 86 x_37 * x_84 + 98 x_37 * x_92
   + 66 x_37 * x_94 + 94 x_38 * x_43 + 94 x_38 * x_44 + 22 x_38 * x_50
   + 62 x_38 * x_54 + 42 x_38 * x_56 + 96 x_38 * x_61 + 62 x_38 * x_63
   + 18 x_38 * x_70 + 28 x_38 * x_81 + 22 x_38 * x_88 + 18 x_38 * x_89
   + 70 x_38 * x_90 + 34 x_38 * x_92 + 14 x_38 * x_93 + 80 x_38 * x_97
   + 54 x_38 * x_98 + 22 x_39 * x_43 + 88 x_39 * x_50 + 46 x_39 * x_51
   + 88 x_39 * x_52 + 8 x_39 * x_53 + 92 x_39 * x_61 + 70 x_39 * x_66
   + 52 x_39 * x_67 + 62 x_39 * x_71 + 64 x_39 * x_73 + 100 x_39 * x_74
   + 90 x_39 * x_77 + 86 x_39 * x_86 + 20 x_39 * x_93 + 44 x_39 * x_96
   + 10 x_40 * x_45 + 100 x_40 * x_47 + 44 x_40 * x_49 + 58 x_40 * x_56
   + 34 x_40 * x_63 + 24 x_40 * x_68 + 22 x_40 * x_69 + 42 x_40 * x_70
   + 48 x_40 * x_79 + 90 x_40 * x_80 + 4 x_40 * x_89 + 94 x_40 * x_90
   + 36 x_40 * x_93 + 28 x_40 * x_98 + 54 x_41 * x_43 + 52 x_41 * x_45
   + 84 x_41 * x_52 + 26 x_41 * x_53 + 44 x_41 * x_58 + 32 x_41 * x_59
   + 52 x_41 * x_60 + 88 x_41 * x_72 + 16 x_41 * x_75 + 22 x_41 * x_82
   + 84 x_41 * x_84 + 4 x_41 * x_90 + 14 x_41 * x_97 + 4 x_42 * x_44
   + 64 x_42 * x_48 + 84 x_42 * x_53 + 96 x_42 * x_55 + 2 x_42 * x_56
   + 26 x_42 * x_68 + 34 x_42 * x_69 + 52 x_42 * x_70 + 54 x_42 * x_73
   + 92 x_42 * x_77 + 36 x_42 * x_79 + 8 x_42 * x_80 + 92 x_42 * x_87
   + 10 x_42 * x_89 + 100 x_42 * x_91 + 68 x_42 * x_92 + 10 x_42 * x_95
   + 38 x_42 * x_96 + 30 x_42 * x_99 + 18 x_43 * x_44 + 58 x_43 * x_51
   + 50 x_43 * x_55 + 36 x_43 * x_56 + 76 x_43 * x_69 + 74 x_43 * x_74
   + 36 x_43 * x_81 + 58 x_43 * x_82 + 82 x_43 * x_86 + 24 x_43 * x_89
   + 36 x_43 * x_91 + 92 x_43 * x_96 + 84 x_44 * x_48 + 98 x_44 * x_49
   + 48 x_44 * x_52 + 90 x_44 * x_55 + 80 x_44 * x_73 + 24 x_44 * x_74
   + 74 x_44 * x_77 + 2 x_44 * x_85 + 10 x_44 * x_86 + 26 x_44 * x_96
   + 2 x_45 * x_52 + 82 x_45 * x_53 + 96 x_45 * x_54 + 38 x_45 * x_56
   + 48 x_45 * x_58 + 56 x_45 * x_72 + 48 x_45 * x_74 + 94 x_45 * x_79
   + 76 x_45 * x_81 + 28 x_45 * x_85 + 20 x_45 * x_88 + 6 x_45 * x_100
   + 56 x_46 * x_50 + 72 x_46 * x_51 + 12 x_46 * x_55 + 34 x_46 * x_59
   + 76 x_46 * x_67 + 42 x_46 * x_77 + 46 x_46 * x_78 + 80 x_46 * x_82
   + 56 x_46 * x_89 + 90 x_46 * x_91 + 32 x_46 * x_96 + 92 x_46 * x_99
   + 18 x_47 * x_50 + 56 x_47 * x_56 + 58 x_47 * x_57 + 46 x_47 * x_58
   + 36 x_47 * x_60 + 38 x_47 * x_62 + 12 x_47 * x_67 + 96 x_47 * x_73
   + 60 x_47 * x_74 + 10 x_47 * x_75 + 52 x_47 * x_76 + 76 x_47 * x_84
   + 86 x_47 * x_89 + 68 x_47 * x_92 + 90 x_47 * x_95 + 16 x_48 * x_56
   + 10 x_48 * x_61 + 58 x_48 * x_66 + 2 x_48 * x_77 + 84 x_48 * x_78
   + 74 x_48 * x_79 + 6 x_48 * x_85 + 2 x_48 * x_88 + 72 x_48 * x_92
   + 6 x_49 * x_63 + 46 x_49 * x_64 + 92 x_49 * x_65 + 48 x_49 * x_76
   + 2 x_49 * x_77 + 14 x_49 * x_86 + 58 x_49 * x_89 + 80 x_49 * x_90
   + 18 x_49 * x_92 + 30 x_49 * x_95 + 40 x_49 * x_99 + 30 x_50 * x_52
   + 30 x_50 * x_58 + 46 x_50 * x_59 + 66 x_50 * x_66 + 18 x_50 * x_70
   + 4 x_50 * x_78 + 14 x_50 * x_79 + 82 x_50 * x_80 + 50 x_50 * x_81
   + 74 x_50 * x_86 + 36 x_50 * x_88 + 94 x_50 * x_96 + 30 x_51 * x_55
   + 88 x_51 * x_58 + 68 x_51 * x_63 + 68 x_51 * x_65 + 78 x_51 * x_79
   + 96 x_51 * x_80 + 74 x_51 * x_81 + 74 x_51 * x_83 + 78 x_51 * x_100
   + 8 x_52 * x_53 + 8 x_52 * x_55 + 10 x_52 * x_58 + 48 x_52 * x_60
   + 46 x_52 * x_61 + 94 x_52 * x_66 + 40 x_52 * x_70 + 74 x_52 * x_72
   + 44 x_52 * x_82 + 14 x_52 * x_83 + 92 x_52 * x_84 + 16 x_52 * x_89
   + 2 x_52 * x_91 + 30 x_52 * x_93 + 72 x_52 * x_96 + 38 x_52 * x_98
   + 66 x_53 * x_59 + 100 x_53 * x_63 + 4 x_53 * x_65 + 18 x_53 * x_66
   + 100 x_53 * x_68 + 76 x_53 * x_74 + 82 x_53 * x_81 + 16 x_53 * x_85
   + 92 x_53 * x_88 + 30 x_53 * x_90 + 54 x_53 * x_92 + 94 x_53 * x_93
   + 12 x_53 * x_97 + 82 x_53 * x_100 + 68 x_54 * x_57 + 30 x_54 * x_67
   + 66 x_54 * x_70 + 34 x_54 * x_72 + 28 x_54 * x_74 + 10 x_54 * x_77
   + 76 x_54 * x_82 + 38 x_54 * x_88 + 16 x_54 * x_90 + 94 x_55 * x_56
   + 16 x_55 * x_57 + 60 x_55 * x_59 + 4 x_55 * x_61 + 58 x_55 * x_63
   + 52 x_55 * x_64 + 68 x_55 * x_71 + 42 x_55 * x_77 + 80 x_55 * x_85
   + 46 x_55 * x_86 + 38 x_55 * x_87 + 66 x_55 * x_90 + 66 x_55 * x_96
   + 50 x_56 * x_57 + 30 x_56 * x_60 + 50 x_56 * x_61 + 22 x_56 * x_65
   + 22 x_56 * x_69 + 56 x_56 * x_71 + 58 x_56 * x_74 + 60 x_56 * x_75
   + 14 x_56 * x_85 + 54 x_56 * x_91 + 72 x_56 * x_95 + 90 x_56 * x_99
   + 24 x_57 * x_63 + 54 x_57 * x_66 + 56 x_57 * x_75 + 98 x_57 * x_77
   + 26 x_57 * x_78 + 36 x_57 * x_83 + 34 x_57 * x_84 + 68 x_57 * x_85
   + 74 x_57 * x_90 + 78 x_57 * x_95 + 20 x_57 * x_98 + 92 x_58 * x_63
   + 72 x_58 * x_68 + 92 x_58 * x_75 + 64 x_58 * x_77 + 94 x_58 * x_81
   + 78 x_58 * x_93 + 72 x_58 * x_94 + 36 x_59 * x_61 + 86 x_59 * x_78
   + 36 x_59 * x_87 + 58 x_59 * x_94 + 60 x_60 * x_65 + 50 x_60 * x_68
   + 2 x_60 * x_72 + 68 x_60 * x_73 + 94 x_60 * x_79 + 62 x_60 * x_81
   + 34 x_60 * x_83 + 68 x_60 * x_84 + 62 x_60 * x_85 + 48 x_60 * x_86
   + 84 x_60 * x_92 + 68 x_60 * x_99 + 38 x_60 * x_100 + 84 x_61 * x_62
   + 18 x_61 * x_64 + 16 x_61 * x_71 + 20 x_61 * x_77 + 36 x_61 * x_81
   + 94 x_61 * x_83 + 10 x_61 * x_85 + 64 x_61 * x_89 + 72 x_61 * x_91
   + 4 x_61 * x_98 + 30 x_62 * x_66 + 58 x_62 * x_69 + 70 x_62 * x_70
   + 26 x_62 * x_71 + 96 x_62 * x_76 + 32 x_62 * x_81 + 42 x_62 * x_85
   + 96 x_62 * x_87 + 40 x_62 * x_88 + 62 x_62 * x_91 + 76 x_62 * x_92
   + 4 x_62 * x_94 + 62 x_62 * x_95 + 52 x_62 * x_97 + 32 x_62 * x_100
   + 58 x_63 * x_64 + 56 x_63 * x_72 + 60 x_63 * x_75 + 8 x_63 * x_76
   + 8 x_63 * x_90 + 16 x_63 * x_100 + 76 x_64 * x_66 + 78 x_64 * x_67
   + 20 x_64 * x_69 + 52 x_64 * x_70 + 74 x_64 * x_73 + 38 x_64 * x_74
   + 48 x_64 * x_75 + 32 x_64 * x_77 + 44 x_64 * x_78 + 8 x_64 * x_82
   + 30 x_64 * x_85 + 46 x_64 * x_86 + 70 x_64 * x_91 + 10 x_64 * x_93
   + 44 x_64 * x_100 + 20 x_65 * x_67 + 80 x_65 * x_68 + 20 x_65 * x_71
   + 56 x_65 * x_73 + 68 x_65 * x_75 + 66 x_65 * x_78 + 42 x_65 * x_81
   + 32 x_65 * x_82 + 84 x_65 * x_87 + 36 x_65 * x_88 + 32 x_65 * x_89
   + 84 x_65 * x_95 + 16 x_66 * x_72 + 58 x_66 * x_74 + 56 x_66 * x_79
   + 82 x_66 * x_87 + 18 x_66 * x_91 + 84 x_66 * x_93 + 4 x_66 * x_95
   + 76 x_66 * x_98 + 2 x_66 * x_99 + 74 x_67 * x_75 + 34 x_67 * x_86
   + 4 x_67 * x_90 + 20 x_67 * x_96 + 68 x_67 * x_97 + 16 x_67 * x_98
   + 88 x_67 * x_99 + 66 x_67 * x_100 + 6 x_68 * x_74 + 58 x_68 * x_83
   + 70 x_68 * x_88 + 40 x_69 * x_70 + 74 x_69 * x_74 + 26 x_69 * x_75
   + 88 x_69 * x_76 + 4 x_69 * x_77 + 100 x_69 * x_78 + 72 x_69 * x_88
   + 92 x_69 * x_89 + 42 x_69 * x_93 + 42 x_69 * x_95 + 100 x_69 * x_96
   + 58 x_70 * x_72 + 96 x_70 * x_73 + 60 x_70 * x_80 + 100 x_70 * x_81
   + 40 x_70 * x_82 + 64 x_70 * x_83 + 36 x_70 * x_88 + 4 x_70 * x_89
   + 44 x_71 * x_75 + 18 x_71 * x_77 + 74 x_71 * x_80 + 6 x_71 * x_92
   + 16 x_72 * x_73 + 82 x_72 * x_74 + 30 x_72 * x_75 + 18 x_72 * x_81
   + 36 x_72 * x_82 + 10 x_72 * x_84 + 12 x_72 * x_89 + 76 x_72 * x_92
   + 46 x_72 * x_99 + 62 x_73 * x_75 + 52 x_73 * x_85 + 22 x_73 * x_86
   + 92 x_73 * x_92 + 66 x_73 * x_96 + 62 x_73 * x_100 + 24 x_74 * x_80
   + 12 x_74 * x_81 + 72 x_74 * x_87 + 16 x_74 * x_90 + 40 x_74 * x_91
   + 78 x_74 * x_92 + 82 x_74 * x_98 + 90 x_74 * x_100 + 56 x_75 * x_82
   + 60 x_75 * x_83 + 14 x_75 * x_84 + 18 x_75 * x_90 + 100 x_75 * x_97
   + 58 x_75 * x_98 + 86 x_76 * x_77 + 40 x_76 * x_78 + 18 x_76 * x_85
   + 88 x_76 * x_86 + 28 x_76 * x_88 + 50 x_77 * x_78 + 76 x_77 * x_91
   + 58 x_77 * x_92 + 90 x_77 * x_97 + 30 x_77 * x_99 + 50 x_77 * x_100
   + 10 x_78 * x_83 + 78 x_78 * x_86 + 66 x_78 * x_91 + 14 x_78 * x_94
   + 54 x_78 * x_96 + 50 x_79 * x_82 + 70 x_79 * x_85 + 44 x_79 * x_90
   + 80 x_79 * x_93 + 26 x_79 * x_94 + 10 x_80 * x_84 + 90 x_80 * x_89
   + 58 x_80 * x_90 + 58 x_80 * x_91 + 66 x_80 * x_98 + 36 x_80 * x_100
   + 12 x_81 * x_82 + 56 x_81 * x_83 + 2 x_81 * x_84 + 86 x_81 * x_86
   + 18 x_81 * x_90 + 92 x_81 * x_93 + 30 x_81 * x_96 + 76 x_82 * x_89
   + 76 x_82 * x_93 + 42 x_82 * x_95 + 58 x_82 * x_96 + 28 x_82 * x_99
   + 50 x_83 * x_87 + 98 x_83 * x_92 + 72 x_83 * x_98 + 74 x_84 * x_87
   + 10 x_84 * x_89 + 4 x_84 * x_90 + 16 x_84 * x_98 + 40 x_85 * x_90
   + 2 x_85 * x_93 + 38 x_85 * x_94 + 44 x_85 * x_95 + 4 x_85 * x_98
   + 78 x_86 * x_87 + 58 x_86 * x_88 + 64 x_86 * x_94 + 36 x_86 * x_95
   + 72 x_86 * x_96 + 12 x_87 * x_93 + 66 x_89 * x_94 + 10 x_89 * x_96
   + 70 x_89 * x_100 + 96 x_90 * x_95 + 98 x_91 * x_93 + 64 x_92 * x_96
   + 40 x_92 * x_98 + 70 x_93 * x_96 + 74 x_93 * x_97 + 18 x_94 * x_95
   + 54 x_94 * x_100 + 82 x_95 * x_98 + 40 x_97 * x_99 ] / 2 
Subject To
 R0: 13 x_1 + 2 x_2 + 18 x_3 + 9 x_4 + 17 x_5 + 14 x_6 + 3 x_7 + 15 x_8
   + 6 x_9 + 14 x_10 + 9 x_11 + x_12 + 12 x_13 + 20 x_14 + 9 x_15 + 13 x_16
   + 20 x_17 + 24 x_18 + 2 x_19 + x_20 + 9 x_21 + 20 x_22 + 6 x_23
   + 15 x_24 + 13 x_25 + 14 x_26 + 24 x_27 + 13 x_28 + 11 x_29 + 14 x_30
   + 16 x_31 + 13 x_32 + 24 x_33 + 7 x_34 + 11 x_35 + 23 x_36 + 6 x_37
   + 7 x_38 + 6 x_39 + 11 x_40 + 23 x_41 + 21 x_42 + x_43 + 18 x_44
   + 2 x_45 + 9 x_46 + 10 x_47 + 25 x_48 + 4 x_49 + 7 x_50 + 5 x_51
   + 25 x_52 + 11 x_53 + 18 x_54 + 16 x_55 + 18 x_56 + 22 x_57 + 18 x_58
   + 9 x_59 + 5 x_60 + 20 x_61 + 11 x_62 + 3 x_63 + 22 x_64 + 13 x_65
   + 11 x_66 + 5 x_67 + 11 x_68 + 11 x_69 + 5 x_70 + 23 x_71 + 12 x_72
   + 14 x_73 + 24 x_74 + x_75 + 7 x_76 + 20 x_77 + 24 x_78 + 22 x_79
   + 11 x_80 + 21 x_81 + 14 x_82 + 21 x_83 + 4 x_84 + 25 x_85 + 21 x_86
   + 19 x_87 + 12 x_88 + 14 x_89 + 12 x_90 + 4 x_91 + 3 x_92 + 16 x_93
   + 12 x_94 + 22 x_95 + 18 x_96 + 14 x_97 + 16 x_98 + 7 x_99 + 24 x_100
   <= 1033
Bounds
Binaries
 x_1 x_2 x_3 x_4 x_5 x_6 x_7 x_8 x_9 x_10 x_11 x_12 x_13 x_14 x_15 x_16
 x_17 x_18 x_19 x_20 x_21 x_22 x_23 x_24 x_25 x_26 x_27 x_28 x_29 x_30 x_31
 x_32 x_33 x_34 x_35 x_36 x_37 x_38 x_39 x_40 x_41 x_42 x_43 x_44 x_45 x_46
 x_47 x_48 x_49 x_50 x_51 x_52 x_53 x_54 x_55 x_56 x_57 x_58 x_59 x_60 x_61
 x_62 x_63 x_64 x_65 x_66 x_67 x_68 x_69 x_70 x_71 x_72 x_73 x_74 x_75 x_76
 x_77 x_78 x_79 x_80 x_81 x_82 x_83 x_84 x_85 x_86 x_87 x_88 x_89 x_90 x_91
 x_92 x_93 x_94 x_95 x_96 x_97 x_98 x_99 x_100
End
